598,662
1080,535
597,-127
411,406
787,460
532,112
709,229
829,429
737,51
494,501
956,131
1001,569
468,514
660,385
554,533
681,256
839,188
945,42
474,374
570,64
681,466
622,397
596,433
463,564
548,338
307,596
801,36
597,939
690,347
737,761
1166,563
817,139
363,88
736,235
207,481
644,643
639,140
708,321
